
;this file is automatically generated: Mon Feb 10 17:02:04 CST 2020

;declarations generated

(declare-fun type_40ab0a15_12a3_4f99_88c6_b61cce169ff3_Class15 ( Int) Bool)
(declare-fun oclExcludes ( Int Int) Bool)
(declare-fun Cardinality ( Int) Int)
(declare-fun oclSelect ( Int Bool) Int)
(declare-fun class15_Class15BoolAttr0 ( Int) Bool)
(declare-fun Enum0 ( Int) Int)
(declare-fun Enum1 ( Int) Int)
(declare-fun container_ ( Int) Int)
(declare-fun obj_d947ac3c_d7b7_4969_8bd0_658ad95b8a07 ( Int) Int)
(declare-fun oclIncludes ( Int Int) Bool)
(declare-fun ObjAt ( Int Int) Int)

;formula(s) generated
(assert (! (forall ((v Int)) (=> ( type_40ab0a15_12a3_4f99_88c6_b61cce169ff3_Class15 v )  ( class15_Class15BoolAttr0 ( obj_d947ac3c_d7b7_4969_8bd0_658ad95b8a07 v )  ) )):named l0))
(assert (exists ((o Int)) ( type_40ab0a15_12a3_4f99_88c6_b61cce169ff3_Class15 ( obj_d947ac3c_d7b7_4969_8bd0_658ad95b8a07 o )  ) ))

 ;end of formula 